#referenced from LAMMPS documentation page, movie gallery, gran region box

# pouring spheres into container box

units		si
atom_style      sphere
boundary        f f f
dimension	3
comm_modify     vel yes

region          box block -6 6 -6 6 -6 6 units box
create_box      2 box

pair_style	hybrid gran/hooke 4000.0 NULL 100.0 NULL 0.5 1
pair_coeff	* * gran/hooke

region          container cylinder z 0 0 0.52 -2.1 2.1 units box &
		open 2

fix		cask_wall all wall/gran/region hooke/history &
		4000.0 NULL 100.0 NULL 0.5 1 region container

neighbor	0.03 bin
neigh_modify	delay 0 every 1 check yes

fix             2 all nve/sphere
fix		3 all gravity 1.0 vector 0 0 -1

region          spout cylinder z 0 0 0.4 2.1 2.4  units box
fix             ins all pour 500 2 4767548 vol 0.3 15 &
	        diam one 0.06 region spout ignore

timestep	0.00005

compute         1 all temp
compute_modify  1 dynamic/dof yes

compute         2 all temp/sphere
compute_modify  2 dynamic/dof yes

thermo		1000
thermo_style	custom step atoms temp c_1 c_2 press
thermo_modify   lost ignore
compute_modify  thermo_temp dynamic/dof yes

dump		2 all movie 100 box.gif type type &
		zoom 1.4 adiam 1.0 box no 0.0 axes yes 0.9 0.03
dump_modify	2 pad 5
# also add in a dump command to dump the pebble coords - see the full core reactor input
run	        10000

region          container delete
variable        theta equal (step-5000)*(4.0*PI/5000)
region          container cylinder z 0 0 0.52 -2.1 2.1 units box &
                rotate v_theta 0 0 0 0 0 1
unfix		cask_wall
fix		cask_wall all wall/gran/region hooke/history &
		4000.0 NULL 100.0 NULL 0.5 1 region container
run	        10000

region          container delete
region          container cylinder z 0 0 0.52 -2.1 2.1 units box 
unfix		cask_wall
fix		cask_wall all wall/gran/region hooke/history &
		4000.0 NULL 100.0 NULL 0.5 1 region container
run             10000

region          container delete
variable        theta equal (step-15000)*(4.0*PI/5000)
region          container cylinder z 0 0 0.52 -2.1 2.1 units box &
                rotate v_theta 0 0 0 1 1 1
unfix		cask_wall
fix		cask_wall all wall/gran/region hooke/history &
		4000.0 NULL 100.0 NULL 0.5 1 region container

run	        10000

region          container delete
region          container cylinder z 0 0 0.52 -2.1 2.1 units box
unfix		cask_wall
fix		cask_wall all wall/gran/region hooke/history &
		4000.0 NULL 100.0 NULL 0.5 1 region container
run             10000
